c A SAT instance generated from a 3-CNF formula that had 30 clauses and 15 variables
p cnf 15 30
-6 2 -11 0
-13 15 2 0
2 15 -12 0
-1 -3 5 0
-7 10 15 0
9 -15 -6 0
-1 -5 -2 0
8 6 4 0
10 5 2 0
-6 11 5 0
10 -9 -2 0
-1 -14 -9 0
6 15 3 0
-12 -7 11 0
8 2 -15 0
6 15 9 0
-14 -8 7 0
11 -8 -12 0
14 -8 11 0
11 -12 -6 0
7 -10 -9 0
-12 5 6 0
1 -7 -11 0
-6 7 11 0
12 -11 7 0
6 -2 -13 0
-3 12 14 0
-15 5 -10 0
-4 -2 11 0
-2 -4 15 0
%
0

69 95 44 3 54 7 3 52 85 11 37 83 80 17 91
